solution status: optimal solution found
objective value:                     164128.148142858
d11(0,0)                                            1 	(obj:0)
d11(1,1)                                            1 	(obj:0)
d11(2,3)                                            1 	(obj:0)
d11(2,5)                                            1 	(obj:0)
d11(3,7)                                            1 	(obj:0)
d11(3,11)                                           1 	(obj:0)
d11(3,13)                                           1 	(obj:0)
d11(4,15)                                           1 	(obj:0)
d11(4,17)                                           1 	(obj:0)
d11(4,19)                                           1 	(obj:0)
d11(4,21)                                           1 	(obj:0)
d11(4,23)                                           1 	(obj:0)
d11(4,25)                                           1 	(obj:0)
d11(4,27)                                           1 	(obj:0)
d11(4,29)                                           1 	(obj:0)
d11(5,31)                                           1 	(obj:0)
d11(5,32)                                           1 	(obj:0)
d11(5,33)                                           1 	(obj:0)
d11(5,34)                                           1 	(obj:0)
d11(5,35)                                           1 	(obj:0)
d11(5,36)                                           1 	(obj:0)
d11(5,37)                                           1 	(obj:0)
d11(5,38)                                           1 	(obj:0)
d11(5,39)                                           1 	(obj:0)
d11(5,40)                                           1 	(obj:0)
d11(5,41)                                           1 	(obj:0)
d11(5,42)                                           1 	(obj:0)
d11(5,43)                                           1 	(obj:0)
d11(5,44)                                           1 	(obj:0)
d11(5,45)                                           1 	(obj:0)
d11(5,46)                                           1 	(obj:0)
d11(5,47)                                           1 	(obj:0)
d11(5,48)                                           1 	(obj:0)
d11(5,49)                                           1 	(obj:0)
d11(5,50)                                           1 	(obj:0)
d11(5,51)                                           1 	(obj:0)
d11(5,52)                                           1 	(obj:0)
d11(5,53)                                           1 	(obj:0)
d11(5,54)                                           1 	(obj:0)
d11(5,55)                                           1 	(obj:0)
d11(5,56)                                           1 	(obj:0)
d11(5,57)                                           1 	(obj:0)
d11(5,58)                                           1 	(obj:0)
d11(5,59)                                           1 	(obj:0)
d11(5,60)                                           1 	(obj:0)
d11(5,61)                                           1 	(obj:0)
d11(5,62)                                           1 	(obj:0)
d12(2,4)                                            1 	(obj:0)
d12(2,6)                                            1 	(obj:0)
d12(3,8)                                            1 	(obj:0)
d12(3,10)                                           1 	(obj:0)
d12(3,12)                                           1 	(obj:0)
d12(3,14)                                           1 	(obj:0)
d12(4,16)                                           1 	(obj:0)
d12(4,18)                                           1 	(obj:0)
d12(4,20)                                           1 	(obj:0)
d12(4,22)                                           1 	(obj:0)
d12(4,24)                                           1 	(obj:0)
d12(4,26)                                           1 	(obj:0)
d12(4,28)                                           1 	(obj:0)
d12(4,30)                                           1 	(obj:0)
d21(4,15)                                           1 	(obj:0)
d21(5,31)                                           1 	(obj:0)
d21(5,32)                                           1 	(obj:0)
d21(5,33)                                           1 	(obj:0)
d21(5,34)                                           1 	(obj:0)
d21(5,35)                                           1 	(obj:0)
d21(5,36)                                           1 	(obj:0)
d21(5,37)                                           1 	(obj:0)
d21(5,39)                                           1 	(obj:0)
d21(5,40)                                           1 	(obj:0)
d21(5,41)                                           1 	(obj:0)
d21(5,43)                                           1 	(obj:0)
d21(5,47)                                           1 	(obj:0)
d21(5,49)                                           1 	(obj:0)
d21(5,51)                                           1 	(obj:0)
d21(5,55)                                           1 	(obj:0)
STE(1,1)                             8484.75010111115 	(obj:0)
STE(0,0)                                        11025 	(obj:0)
STE(1,2)                                        10143 	(obj:0)
STE(2,3)                             7602.75010111121 	(obj:0)
STE(2,4)                             8918.96418698767 	(obj:0)
STE(2,5)                             9261.00000000005 	(obj:0)
STE(2,6)                             10577.2140858765 	(obj:0)
STE(3,7)                             6720.75010111125 	(obj:0)
STE(3,8)                             8036.96418698771 	(obj:0)
STE(3,9)                             8036.96418698767 	(obj:0)
STE(3,10)                            9353.17827286418 	(obj:0)
STE(3,11)                            8379.00000000007 	(obj:0)
STE(3,12)                            9695.21408587656 	(obj:0)
STE(3,13)                            9695.21408587656 	(obj:0)
STE(3,14)                             11011.428171753 	(obj:0)
STE(4,15)                            5838.75010111119 	(obj:0)
STE(4,16)                            7154.96418698772 	(obj:0)
STE(4,17)                            7154.96418698771 	(obj:0)
STE(4,18)                            8471.17827286418 	(obj:0)
STE(4,19)                            7154.96418698767 	(obj:0)
STE(4,20)                            8471.17827286414 	(obj:0)
STE(4,21)                            8471.17827286418 	(obj:0)
STE(4,22)                            9787.39235874064 	(obj:0)
STE(4,23)                            7497.00000000007 	(obj:0)
STE(4,24)                            8813.21408587654 	(obj:0)
STE(4,25)                            8813.21408587656 	(obj:0)
STE(4,26)                             10129.428171753 	(obj:0)
STE(4,27)                            8813.21408587656 	(obj:0)
STE(4,28)                             10129.428171753 	(obj:0)
STE(4,29)                             10129.428171753 	(obj:0)
STE(4,30)                            11445.6422576295 	(obj:0)
STE(5,31)                            3298.50020222231 	(obj:0)
STE(5,32)                            4956.75010111119 	(obj:0)
STE(5,33)                            4614.71428809883 	(obj:0)
STE(5,34)                            6272.96418698772 	(obj:0)
STE(5,35)                            4614.71428809883 	(obj:0)
STE(5,36)                            6272.96418698771 	(obj:0)
STE(5,37)                             5930.9283739753 	(obj:0)
STE(5,38)                            7589.17827286418 	(obj:0)
STE(5,39)                            4614.71428809878 	(obj:0)
STE(5,40)                            6272.96418698767 	(obj:0)
STE(5,41)                            5930.92837397525 	(obj:0)
STE(5,42)                            7589.17827286414 	(obj:0)
STE(5,43)                            5930.92837397529 	(obj:0)
STE(5,44)                            7589.17827286418 	(obj:0)
STE(5,45)                            7247.14245985176 	(obj:0)
STE(5,46)                            8905.39235874064 	(obj:0)
STE(5,47)                            4956.75010111118 	(obj:0)
STE(5,48)                            6615.00000000007 	(obj:0)
STE(5,49)                            6272.96418698765 	(obj:0)
STE(5,50)                            7931.21408587654 	(obj:0)
STE(5,51)                            6272.96418698768 	(obj:0)
STE(5,52)                            7931.21408587656 	(obj:0)
STE(5,53)                            7589.17827286415 	(obj:0)
STE(5,54)                            9247.42817175303 	(obj:0)
STE(5,55)                            6272.96418698767 	(obj:0)
STE(5,56)                            7931.21408587656 	(obj:0)
STE(5,57)                            7589.17827286414 	(obj:0)
STE(5,58)                            9247.42817175303 	(obj:0)
STE(5,59)                            7589.17827286414 	(obj:0)
STE(5,60)                            9247.42817175302 	(obj:0)
STE(5,61)                            8905.39235874061 	(obj:0)
STE(5,62)                            10563.6422576295 	(obj:0)
y1(5,39)                             1492.42490899999 	(obj:0)
y1(5,41)                             1492.42490899999 	(obj:0)
y1(5,43)                             1492.42490899999 	(obj:0)
y1(5,45)                             1492.42490899999 	(obj:0)
y1(5,47)                             1492.42490899999 	(obj:0)
y1(5,49)                             1492.42490899999 	(obj:0)
y1(5,51)                             1492.42490899999 	(obj:0)
y1(5,53)                             1492.42490899999 	(obj:0)
y1(5,55)                             1492.42490899999 	(obj:0)
y1(5,57)                             1492.42490899999 	(obj:0)
y1(5,59)                             1492.42490899999 	(obj:0)
y1(5,61)                             1492.42490899999 	(obj:0)
AVE(1)                                   3216.9117036 	(obj:0)
WB(2)                                692.744255724428 	(obj:0)
AVE(2)                                   3366.1541945 	(obj:0)
WB(3)                                 841.98674662449 	(obj:0)
AVE(3)                                   3515.3966854 	(obj:0)
WB(4)                                3515.39406545826 	(obj:0)
AVE(4)                               3515.39406545826 	(obj:0)
AVE(5)                               3167.15385943327 	(obj:0)
WG(1)                                    3216.9117036 	(obj:10)
WG(2)                                2673.40993877557 	(obj:10)
WG(3)                                2673.40993877551 	(obj:10)
WG(5)                                3167.15385943327 	(obj:10)
BG(1)                                979.380795379591 	(obj:10)
BG(4)                                 2673.4099387755 	(obj:10)
BG(5)                                1029.13863954636 	(obj:10)
y1(1,1)                              1492.42490899996 	(obj:0)
y1(5,31)                             1492.42490899999 	(obj:0)
y1(5,33)                             1492.42490899999 	(obj:0)
y1(5,35)                             1492.42490899999 	(obj:0)
y1(5,37)                             1492.42490899999 	(obj:0)
y2(2,4)                              1385.48851144896 	(obj:0)
y2(2,6)                              1385.48851144896 	(obj:0)
y2(3,8)                              1385.48851144895 	(obj:0)
y2(3,10)                             1385.48851144895 	(obj:0)
y2(3,12)                             1385.48851144895 	(obj:0)
y2(3,14)                             1385.48851144895 	(obj:0)
y2(4,16)                             1385.48851144891 	(obj:0)
y2(4,18)                             1385.48851144891 	(obj:0)
y2(4,20)                             1385.48851144891 	(obj:0)
y2(4,22)                             1385.48851144891 	(obj:0)
y2(4,24)                             1385.48851144891 	(obj:0)
y2(4,26)                             1385.48851144891 	(obj:0)
y2(4,28)                             1385.48851144891 	(obj:0)
y2(4,30)                             1385.48851144891 	(obj:0)
